Problem:    containers
Rows:       21
Columns:    110 (110 integer, 10 binary)
Non-zeros:  220
Status:     INTEGER OPTIMAL
Objective:  z = 6 (MINimum)

   No.   Row name        Activity     Lower bound   Upper bound
------ ------------    ------------- ------------- -------------
     1 Capacity[1]               -10                          -0 
     2 Capacity[2]               -64                          -0 
     3 Capacity[3]               -20                          -0 
     4 Capacity[4]               -10                          -0 
     5 Capacity[5]                -8                          -0 
     6 Capacity[6]                 0                          -0 
     7 Capacity[7]                 0                          -0 
     8 Capacity[8]                 0                          -0 
     9 Capacity[9]             -1496                          -0 
    10 Capacity[10]                0                          -0 
    11 Tutti[1]                   68            68             = 
    12 Tutti[2]                   90            90             = 
    13 Tutti[3]                   10            10             = 
    14 Tutti[4]                   48            48             = 
    15 Tutti[5]                   28            28             = 
    16 Tutti[6]                   70            70             = 
    17 Tutti[7]                   56            56             = 
    18 Tutti[8]                   10            10             = 
    19 Tutti[9]                   45            45             = 
    20 Tutti[10]                  12            12             = 
    21 z                           6                             

   No. Column name       Activity     Lower bound   Upper bound
------ ------------    ------------- ------------- -------------
     1 x[1]         *              1             0             1 
     2 x[2]         *              1             0             1 
     3 x[3]         *              1             0             1 
     4 x[4]         *              1             0             1 
     5 x[5]         *              1             0             1 
     6 x[6]         *              0             0             1 
     7 x[7]         *              0             0             1 
     8 x[8]         *              0             0             1 
     9 x[9]         *              1             0             1 
    10 x[10]        *              0             0             1 
    11 y[1,1]       *             35             0               
    12 y[2,1]       *              0             0               
    13 y[3,1]       *              0             0               
    14 y[4,1]       *              1             0               
    15 y[5,1]       *              0             0               
    16 y[6,1]       *             26             0               
    17 y[7,1]       *              0             0               
    18 y[8,1]       *              0             0               
    19 y[9,1]       *              0             0               
    20 y[10,1]      *              0             0               
    21 y[1,2]       *             33             0               
    22 y[2,2]       *             16             0               
    23 y[3,2]       *              0             0               
    24 y[4,2]       *              0             0               
    25 y[5,2]       *              0             0               
    26 y[6,2]       *              0             0               
    27 y[7,2]       *              0             0               
    28 y[8,2]       *              9             0               
    29 y[9,2]       *             24             0               
    30 y[10,2]      *              0             0               
    31 y[1,3]       *              0             0               
    32 y[2,3]       *             74             0               
    33 y[3,3]       *             10             0               
    34 y[4,3]       *              1             0               
    35 y[5,3]       *              8             0               
    36 y[6,3]       *              0             0               
    37 y[7,3]       *              0             0               
    38 y[8,3]       *              1             0               
    39 y[9,3]       *              0             0               
    40 y[10,3]      *              0             0               
    41 y[1,4]       *              0             0               
    42 y[2,4]       *              0             0               
    43 y[3,4]       *              0             0               
    44 y[4,4]       *             46             0               
    45 y[5,4]       *              0             0               
    46 y[6,4]       *             21             0               
    47 y[7,4]       *              0             0               
    48 y[8,4]       *              0             0               
    49 y[9,4]       *              0             0               
    50 y[10,4]      *              0             0               
    51 y[1,5]       *              0             0               
    52 y[2,5]       *              0             0               
    53 y[3,5]       *              0             0               
    54 y[4,5]       *              0             0               
    55 y[5,5]       *             20             0               
    56 y[6,5]       *              0             0               
    57 y[7,5]       *             56             0               
    58 y[8,5]       *              0             0               
    59 y[9,5]       *             20             0               
    60 y[10,5]      *             12             0               
    61 y[1,6]       *              0             0               
    62 y[2,6]       *              0             0               
    63 y[3,6]       *              0             0               
    64 y[4,6]       *              0             0               
    65 y[5,6]       *              0             0               
    66 y[6,6]       *              0             0               
    67 y[7,6]       *              0             0               
    68 y[8,6]       *              0             0               
    69 y[9,6]       *              0             0               
    70 y[10,6]      *              0             0               
    71 y[1,7]       *              0             0               
    72 y[2,7]       *              0             0               
    73 y[3,7]       *              0             0               
    74 y[4,7]       *              0             0               
    75 y[5,7]       *              0             0               
    76 y[6,7]       *              0             0               
    77 y[7,7]       *              0             0               
    78 y[8,7]       *              0             0               
    79 y[9,7]       *              0             0               
    80 y[10,7]      *              0             0               
    81 y[1,8]       *              0             0               
    82 y[2,8]       *              0             0               
    83 y[3,8]       *              0             0               
    84 y[4,8]       *              0             0               
    85 y[5,8]       *              0             0               
    86 y[6,8]       *              0             0               
    87 y[7,8]       *              0             0               
    88 y[8,8]       *              0             0               
    89 y[9,8]       *              0             0               
    90 y[10,8]      *              0             0               
    91 y[1,9]       *              0             0               
    92 y[2,9]       *              0             0               
    93 y[3,9]       *              0             0               
    94 y[4,9]       *              0             0               
    95 y[5,9]       *              0             0               
    96 y[6,9]       *             23             0               
    97 y[7,9]       *              0             0               
    98 y[8,9]       *              0             0               
    99 y[9,9]       *              1             0               
   100 y[10,9]      *              0             0               
   101 y[1,10]      *              0             0               
   102 y[2,10]      *              0             0               
   103 y[3,10]      *              0             0               
   104 y[4,10]      *              0             0               
   105 y[5,10]      *              0             0               
   106 y[6,10]      *              0             0               
   107 y[7,10]      *              0             0               
   108 y[8,10]      *              0             0               
   109 y[9,10]      *              0             0               
   110 y[10,10]     *              0             0               

Integer feasibility conditions:

KKT.PE: max.abs.err = 0.00e+00 on row 0
        max.rel.err = 0.00e+00 on row 0
        High quality

KKT.PB: max.abs.err = 0.00e+00 on row 0
        max.rel.err = 0.00e+00 on row 0
        High quality

End of output
